certificates/rado_a14_c178_N35.cnf
c Rad2 upper bound instance: x1 + 14*x2 - x3 = 178, interval [1,35]
p cnf 35 174
1 5 13 0
-1 -5 -13 0
1 14 19 0
-1 -14 -19 0
1 15 33 0
-1 -15 -33 0
2 6 13 0
-2 -6 -13 0
2 14 20 0
-2 -14 -20 0
2 15 34 0
-2 -15 -34 0
3 7 13 0
-3 -7 -13 0
3 14 21 0
-3 -14 -21 0
3 15 35 0
-3 -15 -35 0
4 8 13 0
-4 -8 -13 0
4 14 22 0
-4 -14 -22 0
5 9 13 0
-5 -9 -13 0
5 14 23 0
-5 -14 -23 0
6 10 13 0
-6 -10 -13 0
6 14 24 0
-6 -14 -24 0
7 11 13 0
-7 -11 -13 0
7 14 25 0
-7 -14 -25 0
8 12 13 0
-8 -12 -13 0
8 14 26 0
-8 -14 -26 0
9 13 0
-9 -13 0
9 14 27 0
-9 -14 -27 0
10 13 14 0
-10 -13 -14 0
10 14 28 0
-10 -14 -28 0
1 11 12 0
-1 -11 -12 0
11 13 15 0
-11 -13 -15 0
11 14 29 0
-11 -14 -29 0
2 12 0
-2 -12 0
12 13 16 0
-12 -13 -16 0
12 14 30 0
-12 -14 -30 0
3 12 13 0
-3 -12 -13 0
13 17 0
-13 -17 0
13 14 31 0
-13 -14 -31 0
4 12 14 0
-4 -12 -14 0
13 14 18 0
-13 -14 -18 0
14 32 0
-14 -32 0
5 12 15 0
-5 -12 -15 0
13 15 19 0
-13 -15 -19 0
14 15 33 0
-14 -15 -33 0
6 12 16 0
-6 -12 -16 0
13 16 20 0
-13 -16 -20 0
14 16 34 0
-14 -16 -34 0
7 12 17 0
-7 -12 -17 0
13 17 21 0
-13 -17 -21 0
14 17 35 0
-14 -17 -35 0
8 12 18 0
-8 -12 -18 0
13 18 22 0
-13 -18 -22 0
9 12 19 0
-9 -12 -19 0
13 19 23 0
-13 -19 -23 0
10 12 20 0
-10 -12 -20 0
13 20 24 0
-13 -20 -24 0
11 12 21 0
-11 -12 -21 0
13 21 25 0
-13 -21 -25 0
12 22 0
-12 -22 0
13 22 26 0
-13 -22 -26 0
12 13 23 0
-12 -13 -23 0
13 23 27 0
-13 -23 -27 0
12 14 24 0
-12 -14 -24 0
13 24 28 0
-13 -24 -28 0
1 11 25 0
-1 -11 -25 0
12 15 25 0
-12 -15 -25 0
13 25 29 0
-13 -25 -29 0
2 11 26 0
-2 -11 -26 0
12 16 26 0
-12 -16 -26 0
13 26 30 0
-13 -26 -30 0
3 11 27 0
-3 -11 -27 0
12 17 27 0
-12 -17 -27 0
13 27 31 0
-13 -27 -31 0
4 11 28 0
-4 -11 -28 0
12 18 28 0
-12 -18 -28 0
13 28 32 0
-13 -28 -32 0
5 11 29 0
-5 -11 -29 0
12 19 29 0
-12 -19 -29 0
13 29 33 0
-13 -29 -33 0
6 11 30 0
-6 -11 -30 0
12 20 30 0
-12 -20 -30 0
13 30 34 0
-13 -30 -34 0
7 11 31 0
-7 -11 -31 0
12 21 31 0
-12 -21 -31 0
13 31 35 0
-13 -31 -35 0
8 11 32 0
-8 -11 -32 0
12 22 32 0
-12 -22 -32 0
9 11 33 0
-9 -11 -33 0
12 23 33 0
-12 -23 -33 0
10 11 34 0
-10 -11 -34 0
12 24 34 0
-12 -24 -34 0
11 35 0
-11 -35 0
12 25 35 0
-12 -25 -35 0
