certificates/rado_a14_c178_N35.drat
13 -34 11 0
29 -7 -13 11 0
-13 -35 0
-35 0
11 0
-13 34 0
13 0
-9 0
-17 0
-7 0
-15 0
34 0
14 0
12 0
3 0
-10 0
-30 0
-32 0
-29 0
-16 0
-31 0
-18 0
-24 0
-4 0
-2 0
-22 0
-1 0
-21 0
-23 0
-8 0
0
